language ESSENCE' 1.0

letting jobs = 102
letting horizon = 801
letting resourcesRenew = 2
letting resourcesNonrenew = 2
letting resourceLimits = [28, 31, 174, 145]
letting successors = [[2, 3, 4, 5, 6, 7, 8, 9, 10, 11, 13, 14, 15, 16, 17, 18, 19, 21, 22, 25, 26], [52, 44, 43, 41, 32, 30, 20, 12], [52, 47, 40, 39, 38, 30, 29, 24, 23], [42, 41, 38, 23, 12], [66, 57, 51, 48, 47, 46, 41, 40, 37, 35, 33, 32, 28], [52, 51, 48, 41, 12], [66, 57, 53, 52, 51, 49, 48, 47, 41, 39, 37, 36, 28], [55, 52, 51, 50, 47, 46, 42, 41, 39, 35, 33, 32], [66, 52, 50, 48, 47, 46, 44, 41, 39, 38, 35, 27], [66, 53, 52, 51, 47, 44, 42, 39, 33, 32, 27], [54, 49, 47, 41, 39, 35, 31, 28, 27], [66, 60, 57, 55, 50, 49, 47, 46, 35, 34, 33], [66, 55, 52, 49, 42, 41, 35, 27], [66, 65, 59, 57, 54, 53, 50, 49, 46, 41, 40, 39, 37], [65, 63, 60, 54, 50, 49, 48, 47, 45, 39, 37, 35], [66, 57, 55, 51, 50, 48, 35, 33, 27], [68, 66, 65, 60, 55, 53, 51, 49, 48, 47, 46, 45, 42], [66, 61, 58, 54, 51, 50, 45, 43, 35, 32], [66, 60, 54, 51, 50, 44, 35, 27], [73, 65, 63, 60, 53, 51, 50, 48, 45, 39, 37], [66, 65, 63, 54, 46, 45, 44, 43, 39, 35], [68, 65, 63, 58, 55, 54, 52, 50, 45, 39, 35], [62, 61, 57, 55, 53, 51, 48, 43, 33], [63, 59, 55, 54, 35, 28], [74, 66, 65, 63, 51, 44, 39], [66, 65, 63, 61, 60, 55, 52, 51, 50, 43], [101, 74, 73, 71, 70, 68, 65, 63, 62, 61, 58, 56, 45], [101, 77, 74, 65, 62, 61, 60, 58, 56, 50, 43], [101, 73, 72, 71, 70, 68, 62, 61, 60, 56, 55, 45], [68, 62, 61, 46, 42], [101, 77, 70, 69, 66, 61, 59, 55, 53, 43], [77, 74, 73, 72, 70, 65, 64, 62, 60, 56, 49], [74, 73, 70, 68, 63, 58, 56, 54, 45], [101, 65, 63, 45, 39], [101, 100, 84, 83, 82, 77, 73, 72, 70, 67, 62, 56, 53], [83, 82, 81, 77, 72, 70, 68, 64, 63, 59, 54], [99, 84, 83, 81, 74, 71, 68, 64, 58, 56, 55], [83, 81, 74, 72, 71, 70, 69, 64, 62, 60, 54], [84, 77, 71, 70, 64, 62, 61, 56], [101, 100, 93, 82, 77, 74, 73, 71, 70, 69, 64, 61], [84, 81, 73, 72, 71, 70, 69, 64, 62, 60], [82, 77, 74, 71, 70, 69, 57, 54], [96, 95, 84, 83, 82, 81, 78, 76, 75, 73, 71, 68, 64], [101, 99, 95, 84, 83, 82, 81, 75, 73, 68, 58], [99, 98, 96, 93, 82, 81, 77, 75, 64, 59], [100, 99, 96, 95, 93, 92, 91, 84, 81, 78, 73, 72, 64], [96, 92, 79, 76, 74, 67, 62, 61], [101, 100, 99, 97, 96, 95, 93, 92, 89, 84, 82, 81, 79, 77, 75, 67], [101, 100, 99, 97, 96, 84, 83, 82, 81, 79, 75, 71, 67], [100, 99, 92, 81, 78, 76, 70, 69, 67], [101, 100, 98, 96, 95, 92, 89, 83, 81, 79, 77, 76, 72, 67], [99, 98, 96, 94, 88, 83, 80, 78, 77, 76, 75, 71], [99, 97, 96, 94, 91, 87, 81, 79, 76, 74, 71], [101, 100, 99, 98, 97, 92, 80, 78, 76, 67], [100, 98, 97, 96, 95, 94, 93, 92, 91, 90, 89, 87, 85, 82, 78], [97, 92, 89, 87, 78, 76, 69], [97, 95, 92, 91, 90, 89, 88, 87, 78, 76], [98, 97, 92, 91, 88, 87, 80, 78, 72], [100, 97, 95, 92, 91, 88, 87, 84, 79], [97, 96, 93, 90, 87, 85, 82, 78], [95, 94, 90, 89, 88, 87, 86, 83, 81], [99, 98, 95, 88, 87, 80, 75], [93, 92, 89, 88, 69], [97, 80, 79, 67], [95, 93, 91, 88, 87, 85, 80], [94, 87, 78, 75], [94, 90, 88, 87, 86], [93, 90, 85, 79], [96, 95, 75], [89, 87, 86, 85], [92, 90, 89], [94, 90, 86], [89, 87, 85], [98, 88, 86], [91, 85], [93, 85], [87, 86], [79], [86], [89], [85], [88], [85], [85], [102], [102], [102], [102], [102], [102], [102], [102], [102], [102], [102], [102], [102], [102], [102], [102], [102], []]
letting durations = [[0], [2, 5, 10], [2, 7, 8], [3, 4, 9], [1, 6, 8], [4, 9, 9], [2, 7, 8], [1, 5, 5], [6, 9, 10], [4, 7, 10], [2, 3, 6], [1, 2, 6], [1, 5, 7], [3, 6, 10], [3, 7, 8], [1, 4, 8], [1, 2, 10], [6, 10, 10], [3, 5, 6], [4, 4, 5], [1, 4, 5], [1, 8, 10], [2, 2, 3], [7, 7, 9], [3, 6, 10], [2, 3, 10], [1, 8, 8], [1, 3, 6], [4, 8, 9], [2, 2, 10], [3, 5, 7], [1, 1, 5], [1, 1, 6], [5, 7, 9], [1, 4, 6], [2, 4, 10], [1, 6, 7], [2, 9, 9], [2, 6, 10], [2, 7, 7], [8, 9, 10], [2, 5, 7], [1, 7, 9], [7, 9, 10], [1, 1, 6], [5, 6, 9], [4, 5, 10], [9, 10, 10], [5, 8, 10], [2, 6, 10], [5, 9, 10], [5, 6, 8], [1, 6, 8], [2, 3, 9], [1, 2, 6], [2, 4, 9], [3, 5, 8], [7, 8, 10], [4, 5, 9], [2, 3, 4], [4, 6, 8], [3, 3, 5], [2, 4, 10], [7, 8, 10], [2, 3, 10], [3, 6, 7], [4, 9, 9], [1, 3, 5], [2, 8, 9], [5, 8, 9], [1, 6, 7], [3, 5, 6], [5, 8, 10], [2, 9, 10], [6, 8, 10], [1, 5, 6], [3, 7, 9], [5, 8, 10], [1, 5, 5], [2, 2, 3], [4, 5, 6], [3, 8, 10], [2, 6, 10], [5, 8, 9], [1, 5, 6], [5, 7, 8], [1, 3, 7], [2, 3, 6], [1, 4, 10], [4, 9, 10], [3, 5, 7], [1, 6, 8], [5, 7, 8], [2, 3, 5], [4, 5, 8], [4, 5, 7], [2, 6, 9], [2, 3, 7], [6, 7, 7], [4, 7, 7], [1, 3, 7], [0]]
letting resourceUsage = [[[0, 0, 0, 0]], [[0, 2, 0, 7], [3, 0, 3, 0], [0, 1, 0, 2]], [[0, 5, 0, 6], [0, 5, 6, 0], [0, 5, 0, 3]], [[0, 5, 0, 2], [2, 0, 6, 0], [2, 0, 4, 0]], [[4, 0, 0, 5], [4, 0, 7, 0], [3, 0, 0, 1]], [[0, 3, 0, 6], [0, 1, 4, 0], [3, 0, 0, 5]], [[3, 0, 7, 0], [2, 0, 0, 3], [0, 2, 4, 0]], [[3, 0, 7, 0], [0, 1, 0, 1], [0, 1, 1, 0]], [[0, 4, 9, 0], [0, 3, 0, 5], [0, 3, 5, 0]], [[0, 4, 0, 8], [0, 3, 3, 0], [2, 0, 2, 0]], [[3, 0, 0, 9], [2, 0, 2, 0], [2, 0, 1, 0]], [[3, 0, 0, 6], [0, 2, 0, 6], [2, 0, 1, 0]], [[4, 0, 0, 8], [0, 2, 0, 6], [2, 0, 0, 5]], [[4, 0, 7, 0], [0, 3, 7, 0], [4, 0, 6, 0]], [[0, 2, 7, 0], [0, 1, 0, 2], [0, 1, 4, 0]], [[0, 3, 0, 8], [1, 0, 0, 3], [1, 0, 8, 0]], [[0, 3, 0, 4], [1, 0, 7, 0], [0, 2, 0, 3]], [[0, 3, 0, 4], [2, 0, 0, 3], [0, 2, 4, 0]], [[0, 5, 0, 9], [0, 4, 4, 0], [0, 3, 4, 0]], [[0, 3, 0, 8], [3, 0, 0, 6], [0, 2, 3, 0]], [[4, 0, 6, 0], [0, 2, 6, 0], [4, 0, 5, 0]], [[0, 5, 5, 0], [5, 0, 0, 8], [0, 3, 0, 8]], [[3, 0, 9, 0], [2, 0, 0, 6], [1, 0, 0, 2]], [[5, 0, 6, 0], [0, 1, 4, 0], [4, 0, 4, 0]], [[3, 0, 0, 5], [2, 0, 6, 0], [0, 1, 0, 4]], [[5, 0, 9, 0], [0, 3, 0, 5], [0, 3, 0, 1]], [[5, 0, 8, 0], [0, 2, 7, 0], [3, 0, 0, 2]], [[3, 0, 0, 2], [0, 3, 0, 2], [2, 0, 0, 2]], [[0, 3, 0, 8], [0, 3, 5, 0], [2, 0, 0, 5]], [[0, 3, 7, 0], [3, 0, 6, 0], [0, 3, 6, 0]], [[3, 0, 0, 6], [0, 2, 0, 4], [0, 2, 0, 3]], [[5, 0, 0, 7], [0, 4, 3, 0], [4, 0, 0, 2]], [[0, 3, 0, 6], [0, 2, 6, 0], [0, 2, 0, 3]], [[4, 0, 0, 2], [0, 4, 6, 0], [0, 3, 4, 0]], [[2, 0, 0, 5], [0, 3, 7, 0], [0, 3, 0, 1]], [[4, 0, 0, 6], [0, 2, 4, 0], [0, 2, 0, 5]], [[4, 0, 7, 0], [0, 3, 0, 3], [0, 1, 4, 0]], [[0, 4, 7, 0], [2, 0, 0, 1], [2, 0, 1, 0]], [[3, 0, 9, 0], [2, 0, 0, 5], [2, 0, 5, 0]], [[4, 0, 0, 8], [4, 0, 3, 0], [0, 5, 2, 0]], [[3, 0, 0, 9], [0, 5, 2, 0], [1, 0, 2, 0]], [[4, 0, 8, 0], [4, 0, 0, 2], [0, 3, 0, 2]], [[3, 0, 10, 0], [0, 2, 9, 0], [0, 2, 0, 4]], [[2, 0, 7, 0], [0, 2, 4, 0], [0, 2, 0, 9]], [[0, 2, 1, 0], [2, 0, 0, 5], [1, 0, 0, 5]], [[3, 0, 0, 4], [3, 0, 3, 0], [0, 3, 2, 0]], [[0, 3, 0, 9], [4, 0, 3, 0], [4, 0, 0, 3]], [[4, 0, 0, 10], [0, 3, 4, 0], [1, 0, 2, 0]], [[0, 3, 4, 0], [4, 0, 2, 0], [2, 0, 2, 0]], [[2, 0, 0, 2], [0, 1, 0, 1], [1, 0, 0, 1]], [[5, 0, 6, 0], [0, 5, 5, 0], [5, 0, 5, 0]], [[0, 4, 0, 7], [0, 4, 0, 6], [0, 4, 1, 0]], [[0, 5, 0, 8], [0, 5, 0, 6], [2, 0, 0, 5]], [[4, 0, 7, 0], [3, 0, 7, 0], [0, 2, 7, 0]], [[3, 0, 7, 0], [3, 0, 0, 2], [3, 0, 4, 0]], [[0, 3, 0, 8], [1, 0, 0, 3], [1, 0, 8, 0]], [[0, 4, 0, 4], [0, 3, 7, 0], [2, 0, 0, 3]], [[4, 0, 0, 4], [0, 2, 0, 3], [0, 1, 4, 0]], [[0, 4, 0, 9], [0, 3, 4, 0], [0, 3, 3, 0]], [[5, 0, 0, 8], [2, 0, 0, 6], [1, 0, 3, 0]], [[5, 0, 6, 0], [0, 3, 6, 0], [0, 2, 6, 0]], [[0, 3, 0, 7], [4, 0, 0, 6], [0, 2, 0, 5]], [[0, 2, 0, 6], [4, 0, 0, 6], [4, 0, 0, 5]], [[0, 4, 0, 8], [0, 2, 7, 0], [2, 0, 0, 3]], [[3, 0, 10, 0], [0, 4, 0, 2], [1, 0, 0, 1]], [[0, 2, 7, 0], [0, 2, 0, 7], [0, 1, 0, 4]], [[4, 0, 9, 0], [0, 2, 5, 0], [1, 0, 0, 7]], [[2, 0, 0, 10], [2, 0, 4, 0], [0, 1, 0, 9]], [[0, 3, 0, 9], [3, 0, 3, 0], [3, 0, 2, 0]], [[0, 3, 10, 0], [0, 3, 7, 0], [3, 0, 6, 0]], [[0, 4, 8, 0], [3, 0, 6, 0], [2, 0, 0, 3]], [[0, 3, 0, 9], [1, 0, 0, 8], [1, 0, 0, 7]], [[4, 0, 0, 8], [4, 0, 2, 0], [3, 0, 0, 5]], [[0, 4, 10, 0], [0, 4, 0, 4], [0, 4, 5, 0]], [[3, 0, 4, 0], [3, 0, 2, 0], [3, 0, 0, 3]], [[5, 0, 9, 0], [3, 0, 0, 2], [3, 0, 7, 0]], [[3, 0, 0, 9], [0, 2, 3, 0], [1, 0, 0, 5]], [[0, 4, 0, 9], [0, 4, 0, 4], [0, 4, 3, 0]], [[0, 5, 3, 0], [0, 3, 1, 0], [2, 0, 1, 0]], [[0, 4, 9, 0], [0, 2, 0, 2], [0, 2, 0, 1]], [[0, 3, 3, 0], [2, 0, 0, 3], [1, 0, 1, 0]], [[5, 0, 3, 0], [3, 0, 3, 0], [3, 0, 2, 0]], [[3, 0, 0, 6], [0, 1, 4, 0], [3, 0, 0, 3]], [[0, 2, 5, 0], [0, 2, 4, 0], [0, 1, 5, 0]], [[0, 4, 9, 0], [1, 0, 6, 0], [1, 0, 4, 0]], [[3, 0, 0, 1], [3, 0, 9, 0], [2, 0, 9, 0]], [[3, 0, 0, 3], [0, 3, 4, 0], [2, 0, 0, 2]], [[0, 1, 8, 0], [0, 1, 0, 6], [0, 1, 2, 0]], [[2, 0, 7, 0], [0, 1, 6, 0], [1, 0, 4, 0]], [[0, 4, 0, 3], [4, 0, 0, 2], [0, 4, 0, 1]], [[0, 4, 6, 0], [0, 4, 2, 0], [1, 0, 0, 6]], [[0, 2, 0, 2], [1, 0, 0, 2], [1, 0, 0, 1]], [[4, 0, 10, 0], [4, 0, 0, 2], [3, 0, 0, 1]], [[3, 0, 10, 0], [2, 0, 9, 0], [2, 0, 0, 3]], [[5, 0, 0, 5], [4, 0, 0, 3], [4, 0, 0, 2]], [[0, 2, 0, 3], [1, 0, 0, 2], [1, 0, 3, 0]], [[4, 0, 0, 7], [4, 0, 0, 5], [0, 3, 1, 0]], [[5, 0, 0, 8], [0, 2, 3, 0], [5, 0, 0, 7]], [[0, 3, 5, 0], [0, 3, 4, 0], [0, 3, 0, 2]], [[0, 4, 7, 0], [3, 0, 5, 0], [0, 4, 4, 0]], [[4, 0, 0, 5], [0, 3, 3, 0], [1, 0, 0, 3]], [[0, 0, 0, 0]]]
